NAME: random-2-12625
TYPE: TSP
COMMENT: size=2 seed=12625
DIMENSION: 6
EDGE_WEIGHT_TYPE: EUC_2D
NODE_COORD_SECTION
+0 375 605
-0 375 605
+1 528 692
-1 329 960
+2 203 525
-2 873 746
PRECEDENCE_SECTION
+0 -0
+1 -1
+2 -2
EOF
